#ATOM TYPE: C(sp3) C(sp2) H O N S
pair_coeff 1 1 0.0950 3.88
pair_coeff 2 2 0.0950 3.88
pair_coeff 3 3 0.0100 3.20
pair_coeff 4 4 0.1450 3.695
pair_coeff 5 5 0.2150 3.51
pair_coeff 6 6 0.2150 4.14